assets/logs/0_8x8_clingo/0_8x8_clingo.solution.log

---------------------------------
|  0|  9| 46|  8| 14|  5| 38|  1|
---------------------------------
| 48| 10| 16|  7| 40|  6| 32|  0|
---------------------------------
|  0| 44| 11| 12| 18|  0|  3| 36|
---------------------------------
| 37| 50| 53| 42| 41| 34|  4| 30|
---------------------------------
| 55| 13| 39| 20|  2| 28| 23| 45|
---------------------------------
| 52| 35| 17| 51| 29| 43|  0| 26|
---------------------------------
| 15|  0| 31| 56| 22| 21| 47| 25|
---------------------------------
| 33| 54|  0| 19| 49| 27| 24|  0|
---------------------------------

| n = 8 | k = 6 | coverage = 61, 95.3125%
 Time 299.988
 Name 0_8x8_clingo

