assets/logs/0_8x8_clingo/0_8x8_clingo.log
clingo version 5.4.0
Reading from ...sets/logs/0_8x8_clingo/knights_tour.lp ...
Solving...
Answer: 1
occ(1,8,1) occ(1,8,7) occ(1,1,4) occ(1,7,1) occ(1,5,1) occ(2,5,4) occ(3,4,1) crit(6)
Optimization: -6
Answer: 2
occ(1,8,1) occ(1,8,7) occ(1,1,4) occ(1,7,1) occ(1,5,1) occ(2,5,4) occ(3,4,1) crit(7) occ(4,7,3) occ(6,8,5)
Optimization: -7
Answer: 3
occ(1,8,1) occ(1,8,7) occ(1,1,4) occ(1,7,1) occ(1,5,1) occ(2,5,4) occ(3,4,1) crit(40) occ(17,1,3) occ(21,1,7) occ(51,1,6) occ(55,1,8) occ(10,2,1) occ(13,2,2) occ(14,2,3) occ(19,2,5) occ(49,2,4) occ(57,2,6) occ(8,3,3) occ(15,3,4) occ(16,3,5) occ(23,3,8) occ(30,3,6) occ(47,3,2) occ(53,3,7) occ(6,4,5) occ(11,4,3) occ(12,4,2) occ(28,4,4) occ(29,4,6) occ(18,5,6) occ(25,5,7) occ(26,5,2) occ(32,5,5) occ(45,5,3) occ(4,6,6) occ(5,6,2) occ(9,6,4) occ(27,6,5) occ(31,6,7) occ(39,6,3) occ(43,6,1) occ(20,7,7) occ(24,7,3) occ(34,7,4) occ(35,7,6) occ(38,7,8) occ(7,8,3) occ(22,8,5) occ(33,8,8) occ(36,8,6) occ(37,8,4) occ(41,8,2)
Optimization: -40
Answer: 4
occ(1,8,1) occ(1,8,7) occ(1,1,4) occ(1,7,1) occ(1,5,1) occ(2,5,4) occ(3,4,1) crit(42) occ(17,1,3) occ(21,1,7) occ(51,1,6) occ(55,1,8) occ(10,2,1) occ(13,2,2) occ(14,2,3) occ(19,2,5) occ(27,2,7) occ(49,2,4) occ(57,2,6) occ(8,3,3) occ(15,3,4) occ(16,3,5) occ(23,3,8) occ(30,3,6) occ(47,3,2) occ(53,3,7) occ(6,4,5) occ(11,4,3) occ(12,4,2) occ(25,4,6) occ(28,4,4) occ(29,4,8) occ(18,5,6) occ(26,5,2) occ(32,5,5) occ(40,5,7) occ(45,5,3) occ(4,6,6) occ(5,6,2) occ(9,6,4) occ(31,6,7) occ(39,6,3) occ(43,6,1) occ(20,7,7) occ(24,7,3) occ(34,7,4) occ(35,7,6) occ(38,7,8) occ(7,8,3) occ(22,8,5) occ(33,8,8) occ(36,8,6) occ(37,8,4) occ(41,8,2)
Optimization: -42
Answer: 5
occ(1,8,1) occ(1,8,7) occ(1,1,4) occ(1,7,1) occ(1,5,1) occ(2,5,4) occ(3,4,1) crit(44) occ(17,1,3) occ(21,1,7) occ(51,1,6) occ(55,1,8) occ(10,2,1) occ(13,2,2) occ(14,2,3) occ(19,2,5) occ(27,2,7) occ(49,2,4) occ(57,2,6) occ(8,3,3) occ(15,3,4) occ(16,3,5) occ(23,3,8) occ(30,3,6) occ(47,3,2) occ(53,3,7) occ(6,4,5) occ(11,4,3) occ(12,4,2) occ(25,4,6) occ(28,4,4) occ(29,4,8) occ(18,5,6) occ(26,5,2) occ(32,5,5) occ(40,5,7) occ(45,5,3) occ(4,6,6) occ(5,6,2) occ(9,6,4) occ(31,6,7) occ(39,6,3) occ(42,6,5) occ(43,6,1) occ(20,7,7) occ(24,7,3) occ(34,7,4) occ(35,7,6) occ(38,7,8) occ(7,8,3) occ(22,8,5) occ(33,8,8) occ(36,8,6) occ(37,8,4) occ(41,8,2)
Optimization: -44
Answer: 6
occ(1,8,1) occ(1,8,7) occ(1,1,4) occ(1,7,1) occ(1,5,1) occ(2,5,4) occ(3,4,1) crit(51) occ(21,1,7) occ(24,1,3) occ(25,1,5) occ(54,1,8) occ(6,2,1) occ(27,2,7) occ(35,2,5) occ(42,2,3) occ(48,2,4) occ(52,2,6) occ(4,3,3) occ(19,3,8) occ(22,3,4) occ(23,3,6) occ(26,3,2) occ(37,3,7) occ(40,3,1) occ(44,3,5) occ(8,4,2) occ(20,4,6) occ(29,4,8) occ(33,4,4) occ(46,4,3) occ(47,4,7) occ(50,4,5) occ(9,5,5) occ(17,5,7) occ(28,5,3) occ(31,5,6) occ(38,5,2) occ(39,5,8) occ(5,6,2) occ(10,6,3) occ(11,6,7) occ(14,6,1) occ(18,6,5) occ(36,6,4) occ(45,6,6) occ(49,6,8) occ(7,7,4) occ(15,7,8) occ(16,7,3) occ(30,7,2) occ(34,7,6) occ(41,7,7) occ(12,8,2) occ(13,8,6) occ(32,8,4) occ(43,8,5)
Optimization: -51
Answer: 7
occ(1,8,1) occ(1,8,7) occ(1,1,4) occ(1,7,1) occ(1,5,1) occ(2,5,4) occ(3,4,1) crit(55) occ(21,1,7) occ(24,1,3) occ(25,1,5) occ(28,1,1) occ(51,1,6) occ(54,1,8) occ(6,2,1) occ(27,2,7) occ(30,2,3) occ(35,2,5) occ(48,2,4) occ(52,2,6) occ(53,2,8) occ(4,3,3) occ(19,3,8) occ(22,3,4) occ(23,3,6) occ(26,3,2) occ(32,3,1) occ(37,3,7) occ(49,3,5) occ(8,4,2) occ(29,4,8) occ(33,4,4) occ(46,4,3) occ(47,4,7) occ(50,4,5) occ(17,5,7) occ(20,5,3) occ(31,5,6) occ(34,5,2) occ(39,5,8) occ(44,5,5) occ(5,6,2) occ(10,6,3) occ(11,6,7) occ(14,6,1) occ(18,6,5) occ(36,6,4) occ(45,6,6) occ(9,7,5) occ(15,7,8) occ(16,7,3) occ(38,7,2) occ(41,7,7) occ(42,7,6) occ(7,8,3) occ(12,8,2) occ(13,8,6) occ(40,8,4) occ(43,8,5)
Optimization: -55
Answer: 8
occ(1,8,1) occ(1,8,7) occ(1,1,4) occ(1,7,1) occ(1,5,1) occ(2,5,4) occ(3,4,1) crit(56) occ(10,1,6) occ(14,1,2) occ(22,1,8) occ(28,1,7) occ(36,1,5) occ(44,1,3) occ(48,1,1) occ(8,2,8) occ(12,2,4) occ(18,2,5) occ(24,2,6) occ(34,2,7) occ(42,2,1) occ(50,2,3) occ(4,3,5) occ(16,3,3) occ(20,3,7) occ(26,3,8) occ(30,3,6) occ(38,3,4) occ(46,3,2) occ(52,3,1) occ(6,4,7) occ(15,4,5) occ(21,4,6) occ(32,4,8) occ(40,4,2) occ(49,4,4) occ(54,4,3) occ(17,5,7) occ(29,5,5) occ(37,5,3) occ(47,5,6) occ(51,5,2) occ(5,6,2) occ(13,6,6) occ(19,6,5) occ(23,6,7) occ(27,6,3) occ(39,6,1) occ(53,6,4) occ(7,7,4) occ(11,7,8) occ(25,7,5) occ(31,7,6) occ(35,7,2) occ(41,7,3) occ(45,7,7) occ(9,8,6) occ(33,8,4) occ(43,8,5) occ(55,8,3)
Optimization: -56
Answer: 9
occ(1,8,1) occ(1,8,7) occ(1,1,4) occ(1,7,1) occ(1,5,1) occ(2,5,4) occ(3,4,1) crit(58) occ(9,1,1) occ(10,1,6) occ(14,1,2) occ(22,1,8) occ(28,1,7) occ(36,1,5) occ(40,1,3) occ(8,2,8) occ(11,2,3) occ(12,2,4) occ(18,2,5) occ(24,2,6) occ(34,2,7) occ(42,2,1) occ(4,3,5) occ(7,3,2) occ(16,3,3) occ(20,3,7) occ(26,3,8) occ(30,3,6) occ(38,3,4) occ(49,3,1) occ(6,4,7) occ(13,4,4) occ(21,4,6) occ(32,4,8) occ(44,4,2) occ(47,4,3) occ(5,5,3) occ(15,5,6) occ(19,5,8) occ(37,5,7) occ(51,5,2) occ(52,5,5) occ(23,6,7) occ(29,6,4) occ(35,6,5) occ(45,6,2) occ(46,6,1) occ(50,6,3) occ(57,6,6) occ(17,7,7) occ(25,7,5) occ(31,7,2) occ(39,7,8) occ(43,7,4) occ(53,7,3) occ(54,7,6) occ(27,8,3) occ(33,8,4) occ(41,8,6) occ(48,8,2) occ(55,8,5) occ(56,8,8)
Optimization: -58
Answer: 10
occ(1,8,1) occ(1,8,7) occ(1,1,4) occ(1,7,1) occ(1,5,1) occ(2,5,4) occ(3,4,1) crit(59) occ(27,1,6) occ(28,1,1) occ(32,1,3) occ(33,1,5) occ(38,1,2) occ(45,1,7) occ(54,1,8) occ(5,2,2) occ(6,2,7) occ(25,2,8) occ(26,2,3) occ(29,2,4) occ(34,2,1) occ(43,2,5) occ(52,2,6) occ(4,3,5) occ(30,3,2) occ(31,3,6) occ(35,3,4) occ(36,3,3) occ(40,3,1) occ(47,3,8) occ(56,3,7) occ(7,4,3) occ(8,4,8) occ(23,4,7) occ(24,4,2) occ(41,4,4) occ(49,4,6) occ(50,4,5) occ(17,5,7) occ(20,5,3) occ(37,5,5) occ(42,5,2) occ(51,5,8) occ(58,5,6) occ(9,6,2) occ(10,6,7) occ(16,6,4) occ(21,6,8) occ(22,6,1) occ(39,6,3) occ(48,6,6) occ(55,6,5) occ(11,7,4) occ(12,7,5) occ(15,7,8) occ(18,7,2) occ(19,7,6) occ(44,7,3) occ(53,7,7) occ(13,8,6) occ(14,8,3) occ(46,8,5) occ(57,8,4)
Optimization: -59
*** Info : (clingo): INTERRUPTED by signal!
SATISFIABLE

TIME LIMIT   : 1
Models       : 10+
  Optimum    : unknown
Optimization : -59
Calls        : 1
Time         : 10.000s (Solving: 9.67s 1st Model: 0.00s Unsat: 0.00s)
CPU Time     : 10.000s
